5 9

0 5 14 7 17
13 0 24 26 25
19 21 0 7 21
4 3 18 0 14
25 12 4 3 0

0 3 10 25 6 18 27 22 24
18 0 11 3 14 12 7 24 22
9 19 0 8 27 13 24 17 18
10 13 15 0 24 11 9 23 16
28 28 27 9 0 9 15 10 21
13 9 7 7 18 0 14 29 30
4 25 5 11 29 8 0 6 17
18 11 9 29 16 15 23 0 19
18 24 13 25 29 29 22 17 0